networks/zoo_61_174/zoo_61_174-lower.sol
<?xml version = "1.0" encoding="UTF-8" standalone="yes"?>
<CPLEXSolution version="1.2">
 <header
   problemName="networks/zoo_61_174/zoo_61_174-lower.lp"
   solutionName="incumbent"
   solutionIndex="-1"
   objectiveValue="17"
   solutionTypeValue="3"
   solutionTypeString="primal"
   solutionStatusValue="101"
   solutionStatusString="integer optimal solution"
   solutionMethodString="mip"
   primalFeasible="1"
   dualFeasible="1"
   MIPNodes="0"
   MIPIterations="0"
   writeLevel="3"/>
 <quality
   epInt="1.0000000000000001e-05"
   epRHS="9.9999999999999995e-07"
   maxIntInfeas="0"
   maxPrimalInfeas="0"
   maxX="1"
   maxSlack="1"/>
 <variables>
  <variable name="Y(1,2)" index="1" value="1"/>
  <variable name="Y(2,4)" index="44" value="1"/>
  <variable name="Y(3,8)" index="89" value="1"/>
  <variable name="Y(4,9)" index="132" value="1"/>
  <variable name="Y(5,12)" index="177" value="1"/>
  <variable name="Y(6,15)" index="221" value="1"/>
  <variable name="Y(7,16)" index="264" value="1"/>
  <variable name="Y(8,18)" index="308" value="1"/>
  <variable name="Y(9,20)" index="352" value="1"/>
  <variable name="Y(10,21)" index="395" value="1"/>
  <variable name="Y(11,23)" index="439" value="1"/>
  <variable name="Y(12,24)" index="482" value="1"/>
  <variable name="Y(13,25)" index="525" value="1"/>
  <variable name="Y(14,27)" index="568" value="1"/>
  <variable name="Y(25,1)" index="1008" value="1"/>
  <variable name="Y(29,10)" index="1183" value="1"/>
  <variable name="Y(31,14)" index="1270" value="1"/>
  <variable name="X(1,2,1)" index="7308" value="1"/>
  <variable name="X(1,8,2)" index="7483" value="1"/>
  <variable name="X(1,35,25)" index="7680" value="1"/>
  <variable name="X(2,8,15)" index="7844" value="1"/>
  <variable name="X(2,36,1)" index="8004" value="1"/>
  <variable name="X(4,8,17)" index="8194" value="1"/>
  <variable name="X(4,38,2)" index="8353" value="1"/>
  <variable name="X(6,8,21)" index="8546" value="1"/>
  <variable name="X(7,1,23)" index="8722" value="1"/>
  <variable name="X(8,1,25)" index="8898" value="1"/>
  <variable name="X(8,2,26)" index="9073" value="1"/>
  <variable name="X(8,4,2)" index="9223" value="1"/>
  <variable name="X(8,9,4)" index="9399" value="1"/>
  <variable name="X(8,21,8)" index="9577" value="1"/>
  <variable name="X(8,23,11)" index="9754" value="1"/>
  <variable name="X(8,24,5)" index="9922" value="1"/>
  <variable name="X(8,42,3)" index="10094" value="1"/>
  <variable name="X(9,8,41)" index="10306" value="1"/>
  <variable name="X(9,20,7)" index="10446" value="1"/>
  <variable name="X(9,21,49)" index="10662" value="1"/>
  <variable name="X(9,23,52)" index="10839" value="1"/>
  <variable name="X(9,24,53)" index="11014" value="1"/>
  <variable name="X(9,43,4)" index="11139" value="1"/>
  <variable name="X(10,16,56)" index="11365" value="1"/>
  <variable name="X(10,44,29)" index="11512" value="1"/>
  <variable name="X(11,15,63)" index="11720" value="1"/>
  <variable name="X(11,20,59)" index="11890" value="1"/>
  <variable name="X(12,14,46)" index="12051" value="1"/>
  <variable name="X(12,20,77)" index="12256" value="1"/>
  <variable name="X(12,24,70)" index="12423" value="1"/>
  <variable name="X(12,46,5)" index="12532" value="1"/>
  <variable name="X(14,12,85)" index="12786" value="1"/>
  <variable name="X(14,15,108)" index="12983" value="1"/>
  <variable name="X(14,18,78)" index="13127" value="1"/>
  <variable name="X(14,48,31)" index="13254" value="1"/>
  <variable name="X(15,14,93)" index="13490" value="1"/>
  <variable name="X(15,16,95)" index="13666" value="1"/>
  <variable name="X(15,20,97)" index="13842" value="1"/>
  <variable name="X(15,24,56)" index="13975" value="1"/>
  <variable name="X(15,49,6)" index="14099" value="1"/>
  <variable name="X(16,10,29)" index="14296" value="1"/>
  <variable name="X(16,15,56)" index="14497" value="1"/>
  <variable name="X(16,20,57)" index="14672" value="1"/>
  <variable name="X(16,50,7)" index="14796" value="1"/>
  <variable name="X(17,14,108)" index="15071" value="1"/>
  <variable name="X(17,18,105)" index="15242" value="1"/>
  <variable name="X(18,14,31)" index="15342" value="1"/>
  <variable name="X(18,21,86)" index="15571" value="1"/>
  <variable name="X(18,52,8)" index="15667" value="1"/>
  <variable name="X(19,11,120)" index="15953" value="1"/>
  <variable name="X(19,20,119)" index="16126" value="1"/>
  <variable name="X(20,9,59)" index="16240" value="1"/>
  <variable name="X(20,12,45)" index="16400" value="1"/>
  <variable name="X(20,15,47)" index="16576" value="1"/>
  <variable name="X(20,16,7)" index="16710" value="1"/>
  <variable name="X(20,21,57)" index="16934" value="1"/>
  <variable name="X(20,54,9)" index="17060" value="1"/>
  <variable name="X(21,8,105)" index="17330" value="1"/>
  <variable name="X(21,9,107)" index="17506" value="1"/>
  <variable name="X(21,18,8)" index="17581" value="1"/>
  <variable name="X(21,20,115)" index="17862" value="1"/>
  <variable name="X(21,23,117)" index="18038" value="1"/>
  <variable name="X(21,24,118)" index="18213" value="1"/>
  <variable name="X(21,55,10)" index="18279" value="1"/>
  <variable name="X(22,24,142)" index="18585" value="1"/>
  <variable name="X(23,8,144)" index="18761" value="1"/>
  <variable name="X(23,9,148)" index="18939" value="1"/>
  <variable name="X(23,21,152)" index="19117" value="1"/>
  <variable name="X(23,25,13)" index="19152" value="1"/>
  <variable name="X(23,57,11)" index="19324" value="1"/>
  <variable name="X(24,8,56)" index="19543" value="1"/>
  <variable name="X(24,9,74)" index="19735" value="1"/>
  <variable name="X(24,12,5)" index="19840" value="1"/>
  <variable name="X(24,15,6)" index="20015" value="1"/>
  <variable name="X(24,21,80)" index="20263" value="1"/>
  <variable name="X(24,58,12)" index="20369" value="1"/>
  <variable name="X(25,23,158)" index="20689" value="1"/>
  <variable name="X(25,27,14)" index="20719" value="1"/>
  <variable name="X(25,59,13)" index="20892" value="1"/>
  <variable name="X(27,25,161)" index="21214" value="1"/>
  <variable name="X(27,61,14)" index="21241" value="1"/>
  <variable name="X(29,21,167)" index="21568" value="1"/>
  <variable name="X(30,20,171)" index="21746" value="1"/>
  <variable name="X(30,24,169)" index="21918" value="1"/>
 </variables>
</CPLEXSolution>
